(declare-fun v11 ()Bool         )
(declare-fun bvlambda_12_ () (_ BitVec 2))
(declare-fun bvlambda_21_ () (_ BitVec 6))
(declare-fun a72 () (Array (_ BitVec 1) (_ BitVec 6)))
(assert
(let (($e9 (_ bv0 4)))
(let (($e81 (store a72 true         bvlambda_21_)))
(let (($e85 (concat $e9         bvlambda_12_ )))
(let (($e86        $e81                  ))
(let (($e87 (store $e86 v11         $e85)))
(let (($e249 (select $e87 true         )))
(let (($e464      (= $e85 $e249)         ))
             (bvult $e464 true )
                                                                                  )                                                                                                                                                                                                                      )                                                                                                                                                                 )))   )                          )        )
